(set-info :smt-lib-version 2.6)
(set-logic QF_NIA)
(set-info :source |AProve team, see http://aprove.informatik.rwth-aachen.de/, submitted for SMT-COMP 2014|)
(set-info :category "industrial")
(set-info :status sat)
(declare-fun a__4 () Int)
(declare-fun a__2 () Int)
(declare-fun a__6 () Int)
(declare-fun a__9 () Int)
(declare-fun a__13 () Int)
(declare-fun a__17 () Int)
(declare-fun a__19 () Int)
(declare-fun a__21 () Int)
(declare-fun a__22 () Int)
(declare-fun a__24 () Int)
(declare-fun a__26 () Int)
(declare-fun a__29 () Int)
(declare-fun a__31 () Int)
(declare-fun a__34 () Int)
(declare-fun a__36 () Int)
(declare-fun a__39 () Int)
(declare-fun a__41 () Int)
(declare-fun a__44 () Int)
(declare-fun a__47 () Int)
(declare-fun a__49 () Int)
(declare-fun a__53 () Int)
(declare-fun a__57 () Int)
(declare-fun a__59 () Int)
(declare-fun a__60 () Int)
(declare-fun a__62 () Int)
(declare-fun a__65 () Int)
(declare-fun a__68 () Int)
(declare-fun a__69 () Int)
(declare-fun a__71 () Int)
(declare-fun a__76 () Int)
(declare-fun a__81 () Int)
(declare-fun a__86 () Int)
(declare-fun a__89 () Int)
(declare-fun a__93 () Int)
(declare-fun a__96 () Int)
(declare-fun a__99 () Int)
(declare-fun a__103 () Int)
(declare-fun a__107 () Int)
(declare-fun a__109 () Int)
(declare-fun a__113 () Int)
(declare-fun a__116 () Int)
(declare-fun a__3 () Int)
(declare-fun a__5 () Int)
(declare-fun a__8 () Int)
(declare-fun a__12 () Int)
(declare-fun a__16 () Int)
(declare-fun a__18 () Int)
(declare-fun a__20 () Int)
(declare-fun a__23 () Int)
(declare-fun a__25 () Int)
(declare-fun a__28 () Int)
(declare-fun a__30 () Int)
(declare-fun a__33 () Int)
(declare-fun a__35 () Int)
(declare-fun a__38 () Int)
(declare-fun a__40 () Int)
(declare-fun a__43 () Int)
(declare-fun a__46 () Int)
(declare-fun a__48 () Int)
(declare-fun a__52 () Int)
(declare-fun a__56 () Int)
(declare-fun a__58 () Int)
(declare-fun a__61 () Int)
(declare-fun a__64 () Int)
(declare-fun a__67 () Int)
(declare-fun a__70 () Int)
(declare-fun a__75 () Int)
(declare-fun a__80 () Int)
(declare-fun a__85 () Int)
(declare-fun a__88 () Int)
(declare-fun a__92 () Int)
(declare-fun a__95 () Int)
(declare-fun a__98 () Int)
(declare-fun a__102 () Int)
(declare-fun a__106 () Int)
(declare-fun a__108 () Int)
(declare-fun a__112 () Int)
(declare-fun a__115 () Int)
(assert (and (>= (+ (* a__4 a__2) (* (- 0 1) a__2)) 0) (>= (+ (* a__6 a__2) (* (- 0 1) a__2)) 0) (>= (+ (* a__9 a__2) (* (- 0 1) a__2)) 0) (>= (+ (* a__13 a__2) (* (- 0 1) a__2)) 0) (>= (+ (* a__17 a__2) (* (- 0 1) a__2)) 0) (>= (+ (* a__19 a__2) (* (- 0 1) a__2)) 0) (>= (+ (* a__21 a__2) (* (- 0 1) a__2)) 0) (>= (+ (* a__22 a__2) (* (- 0 1) a__2)) 0) (>= (+ (* a__24 a__2) (* (- 0 1) a__2)) 0) (>= (+ (* a__26 a__2) (* (- 0 1) a__2)) 0) (>= (+ (* a__29 a__2) (* (- 0 1) a__2)) 0) (>= (+ (* a__31 a__2) (* (- 0 1) a__2)) 0) (>= (+ (* a__34 a__2) (* (- 0 1) a__2)) 0) (>= (+ (* a__36 a__2) (* (- 0 1) a__2)) 0) (>= (+ (* a__39 a__2) (* (- 0 1) a__2)) 0) (>= (+ (* a__41 a__2) (* (- 0 1) a__2)) 0) (>= (+ (* a__44 a__2) (* (- 0 1) a__2)) 0) (>= (+ (* a__47 a__2) (* (- 0 1) a__2)) 0) (>= (+ (* a__49 a__2) (* (- 0 1) a__2)) 0) (>= (+ (* a__53 a__2) (* (- 0 1) a__2)) 0) (>= (+ (* a__57 a__2) (* (- 0 1) a__2)) 0) (>= (+ (* a__59 a__2) (* (- 0 1) a__2)) 0) (>= (+ (* a__60 a__2) (* (- 0 1) a__2)) 0) (>= (+ (* a__62 a__2) (* (- 0 1) a__2)) 0) (>= (+ (* a__65 a__2) (* (- 0 1) a__2)) 0) (>= (+ (* a__68 a__2) (* (- 0 1) a__2)) 0) (>= (+ (* a__69 a__2) (* (- 0 1) a__2)) 0) (>= (+ (* a__71 a__2) (* (- 0 1) a__2)) 0) (>= (+ (* a__76 a__2) (* (- 0 1) a__2)) 0) (>= (+ (* a__81 a__2) (* (- 0 1) a__2)) 0) (>= (+ (* a__86 a__2) (* (- 0 1) a__2)) 0) (>= (+ (* a__89 a__2) (* (- 0 1) a__2)) 0) (>= (+ (* a__93 a__2) (* (- 0 1) a__2)) 0) (>= (+ (* a__96 a__2) (* (- 0 1) a__2)) 0) (>= (+ (* a__99 a__2) (* (- 0 1) a__2)) 0) (>= (+ (* a__103 a__2) (* (- 0 1) a__2)) 0) (>= (+ (* a__107 a__2) (* (- 0 1) a__2)) 0) (>= (+ (* a__109 a__2) (* (- 0 1) a__2)) 0) (>= (+ (* a__113 a__2) (* (- 0 1) a__2)) 0) (>= (+ (* a__116 a__2) (* (- 0 1) a__2)) 0) (>= (* a__3 a__2) 0) (>= (* a__5 a__2) 0) (>= (* a__8 a__2) 0) (>= (* a__12 a__2) 0) (>= (* a__16 a__2) 0) (>= (* a__18 a__2) 0) (>= (* a__20 a__2) 0) (>= (* a__23 a__2) 0) (>= (* a__25 a__2) 0) (>= (* a__28 a__2) 0) (>= (* a__30 a__2) 0) (>= (* a__33 a__2) 0) (>= (* a__35 a__2) 0) (>= (* a__38 a__2) 0) (>= (* a__40 a__2) 0) (>= (* a__43 a__2) 0) (>= (* a__46 a__2) 0) (>= (* a__48 a__2) 0) (>= (* a__52 a__2) 0) (>= (* a__56 a__2) 0) (>= (* a__58 a__2) 0) (>= (* a__61 a__2) 0) (>= (* a__64 a__2) 0) (>= (* a__67 a__2) 0) (>= (* a__70 a__2) 0) (>= (* a__75 a__2) 0) (>= (* a__80 a__2) 0) (>= (* a__85 a__2) 0) (>= (* a__88 a__2) 0) (>= (* a__92 a__2) 0) (>= (* a__95 a__2) 0) (>= (* a__98 a__2) 0) (>= (* a__102 a__2) 0) (>= (* a__106 a__2) 0) (>= (* a__108 a__2) 0) (>= (* a__112 a__2) 0) (>= (* a__115 a__2) 0) (not (and (= (* a__3 a__2) 0) (= (* a__5 a__2) 0) (= (* a__8 a__2) 0) (= (* a__12 a__2) 0) (= (* a__16 a__2) 0) (= (* a__18 a__2) 0) (= (* a__20 a__2) 0) (= (* a__23 a__2) 0) (= (* a__25 a__2) 0) (= (* a__28 a__2) 0) (= (* a__30 a__2) 0) (= (* a__33 a__2) 0) (= (* a__35 a__2) 0) (= (* a__38 a__2) 0) (= (* a__40 a__2) 0) (= (* a__43 a__2) 0) (= (* a__46 a__2) 0) (= (* a__48 a__2) 0) (= (* a__52 a__2) 0) (= (* a__56 a__2) 0) (= (* a__58 a__2) 0) (= (* a__61 a__2) 0) (= (* a__64 a__2) 0) (= (* a__67 a__2) 0) (= (* a__70 a__2) 0) (= (* a__75 a__2) 0) (= (* a__80 a__2) 0) (= (* a__85 a__2) 0) (= (* a__88 a__2) 0) (= (* a__92 a__2) 0) (= (* a__95 a__2) 0) (= (* a__98 a__2) 0) (= (* a__102 a__2) 0) (= (* a__106 a__2) 0) (= (* a__108 a__2) 0) (= (* a__112 a__2) 0) (= (* a__115 a__2) 0))) (>= a__4 0) (>= a__2 0) (>= a__6 0) (>= a__9 0) (>= a__13 0) (>= a__17 0) (>= a__19 0) (>= a__21 0) (>= a__22 0) (>= a__24 0) (>= a__26 0) (>= a__29 0) (>= a__31 0) (>= a__34 0) (>= a__36 0) (>= a__39 0) (>= a__41 0) (>= a__44 0) (>= a__47 0) (>= a__49 0) (>= a__53 0) (>= a__57 0) (>= a__59 0) (>= a__60 0) (>= a__62 0) (>= a__65 0) (>= a__68 0) (>= a__69 0) (>= a__71 0) (>= a__76 0) (>= a__81 0) (>= a__86 0) (>= a__89 0) (>= a__93 0) (>= a__96 0) (>= a__99 0) (>= a__103 0) (>= a__107 0) (>= a__109 0) (>= a__113 0) (>= a__116 0) (>= a__3 0) (>= a__5 0) (>= a__8 0) (>= a__12 0) (>= a__16 0) (>= a__18 0) (>= a__20 0) (>= a__23 0) (>= a__25 0) (>= a__28 0) (>= a__30 0) (>= a__33 0) (>= a__35 0) (>= a__38 0) (>= a__40 0) (>= a__43 0) (>= a__46 0) (>= a__48 0) (>= a__52 0) (>= a__56 0) (>= a__58 0) (>= a__61 0) (>= a__64 0) (>= a__67 0) (>= a__70 0) (>= a__75 0) (>= a__80 0) (>= a__85 0) (>= a__88 0) (>= a__92 0) (>= a__95 0) (>= a__98 0) (>= a__102 0) (>= a__106 0) (>= a__108 0) (>= a__112 0) (>= a__115 0)))
(check-sat)
;;(get-assignment)
;;(get-model)
(exit)
